3,1,5,1,3,2,8,3,1,3,10,2,7,3,4,4,5,4,6,4,7,4,7,5;9,1,4,3,3,3,1,4,6,5,1,6;8,1,1,2,9,2,6,2,2,4,2,5,5,6,9,5;7,1,10,1,6,1,5,3,10,4,9,3,5,5,3,5,2,6,4,6;1,1,8,2,7,2,8,4,10,3,2,3,6,3,3,4,9,4,3,6;4,1,2,1,4,2,5,2,2,2,8,5,4,5,10,5,1,5,8,6,10,6,6,6;
